3 
4  44 
5  04 23 37 52 
6  08 23 38 53 
7  08 23 38 53 
8  08 23 38 53 
9  09 24 39 52 
10  07 22 37 52 
11  07 22 37 52 
12  07 22 37 52 
13  07 22 37 52 
14  09 28 43 58 
15  13 28 43 58 
16  13 28 43 58 
17  10 25 38 54 
18  08 23 38 52 
19  07 22 37 52 
20  05 20 35 50 
21  05 20 35 50 
22  05 20 33 46 
23  
0 
